p cnf 13 20
-13 10 9 0
-13 -10 -2 0
-12 -10 3 0
-12 -10 2 0
-12 9 -8 0
-12 -8 -2 0
-12 5 1 0
11 10 8 0
-11 8 -5 0
11 4 1 0
11 3 -1 0
-11 3 -1 0
10 -8 -5 0
-9 -8 -2 0
-9 7 -1 0
9 3 -1 0
8 6 2 0
7 6 -4 0
-6 -4 2 0
-6 3 1 0
